PARAMETER_FILE = even/LKH_uncomplete_graph/x10/nei/par/random137.par
PROBLEM_FILE = even/LKH_uncomplete_graph/x10/nei/mat/random137.tsp
Successes/Runs = 0/10
Cost.min = 907, Cost.avg = 907.10, Cost.max = 908
Gap.min = 0.0000%, Gap.avg = 0.0110%, Gap.max = 0.1103%
Trials.min = 1000, Trials.avg = 1000.0, Trials.max = 1000
Time.min = 0.22 sec., Time.avg = 1.11 sec., Time.max = 1.77 sec.
Time.total = 11.21 sec.
请按任意键继续. . . 
